# Solution for model GasLib-40
# Objective value = 6.8129354315972051e+01
loadshed[innode_1] 0
loadshed[innode_2] 0
loadshed[innode_3] 0
loadshed[innode_4] 0
loadshed[innode_5] 0
loadshed[innode_6] 0
loadshed[innode_7] 0
loadshed[innode_8] 0
loadshed[source_1] -5.6293469922189976e-02
loadshed[source_2] 2.2158837541301435e-01
loadshed[source_3] 0.265657302789282
loadshed[sink_1] 1
loadshed[sink_2] 0
loadshed[sink_3] 0
loadshed[sink_4] 0
loadshed[sink_5] 0
loadshed[sink_6] 0
loadshed[sink_7] 0
loadshed[sink_8] 0
loadshed[sink_9] 0
loadshed[sink_10] 0
loadshed[sink_11] 0
loadshed[sink_12] 1
loadshed[sink_13] 0
loadshed[sink_14] 0
loadshed[sink_15] 0
loadshed[sink_16] 0
loadshed[sink_17] 0
loadshed[sink_18] 0
loadshed[sink_19] 0
loadshed[sink_20] 0
loadshed[sink_21] 1
loadshed[sink_22] 2.0924593509425987e-01
loadshed[sink_23] 0
loadshed[sink_24] 9.5662541161485837e-01
loadshed[sink_25] 0
loadshed[sink_26] 0
loadshed[sink_27] 0
loadshed[sink_28] 0
loadshed[sink_29] 0
flow[source_1,sink_3] 1.6698972807485177e+02
flow[innode_1,sink_16] 1.6354166666666970e+01
flow[innode_6,sink_13] -1.6132743194585188e+00
flow[sink_13,sink_14] -1.7967440986125187e+01
flow[sink_14,sink_10] -3.4321607652791855e+01
flow[sink_25,sink_26] 0
flow[sink_26,sink_9] 3.2708333333334551e+01
flow[sink_9,sink_18] 1.6354166666667879e+01
flow[sink_26,sink_4] -4.9062500000001208e+01
flow[sink_4,sink_20] -8.7483777360869112e+01
flow[sink_18,sink_6] 0
flow[sink_25,innode_8] -1.3428139474151538e+02
flow[sink_6,sink_7] -2.9286290436479295e+01
flow[sink_6,sink_22] 1.2932123769812627e+01
flow[sink_7,sink_24] 7.0935524754867152e-01
flow[sink_22,sink_1] 0
flow[sink_24,sink_21] 0
flow[sink_21,sink_12] 0
flow[sink_7,sink_5] -4.6349812350694627e+01
flow[sink_5,sink_17] -6.2703979017361291e+01
flow[sink_17,sink_4] -2.2067110694201233e+01
flow[sink_17,sink_8] -56.9910349898267
flow[sink_3,sink_23] 16.3541666666697
flow[sink_8,sink_20] -7.3345201656493373e+01
flow[sink_25,sink_20] 1.7718314568402920e+02
flow[sink_25,sink_15] -5.7642643289722244e+01
flow[sink_15,sink_29] -7.3996809956388915e+01
flow[sink_29,sink_28] 1.6354166666667879e+01
flow[sink_29,sink_2] 1.6354166666684250e+01
flow[sink_2,sink_15] 0
flow[sink_29,innode_7] -1.2305930995640783e+02
flow[innode_4,sink_19] 4.4873512610718592e+01
flow[sink_19,innode_3] 4.0691092570435515e+01
flow[innode_4,innode_5] 7.1218928375406378e+01
flow[sink_27,innode_5] -7.1218928375406378e+01
flow[sink_27,sink_19] 5.4864761708739707e+01
flow[sink_10,sink_11] 3.2708333333333641e+01
flow[sink_10,innode_2] -4.2693015082356645e+01
flow[sink_10,innode_3] -4.0691092570435515e+01
flow[innode_6,sink_25] 1.6132743194585188e+00
flow[sink_11,innode_1] 1.6354166666666970e+01
flow[sink_19,innode_2] 4.2693015082356645e+01
flow[source_3,innode_4] 1.1609244098612497e+02
flow[source_2,innode_7] 1.2305930995640783e+02
flow[sink_3,innode_8] 1.3428139474151538e+02
pressure[innode_1] 7.6787106183144644e+01
pressure[innode_2] 7.9195309665777984e+01
pressure[innode_3] 7.9105203849047129e+01
pressure[innode_4] 81.01325
pressure[innode_5] 8.0964261865677670e+01
pressure[innode_6] 7.5274395663466976e+01
pressure[innode_7] 81.01325
pressure[innode_8] 8.0455067131434120e+01
pressure[source_1] 81.01325
pressure[source_2] 81.01325
pressure[source_3] 81.01325
pressure[sink_1] 1.01325
pressure[sink_2] 7.7307626044495322e+01
pressure[sink_3] 8.0455067131434120e+01
pressure[sink_4] 2.6616258810255967e+01
pressure[sink_5] 2.1101933404156778e+01
pressure[sink_6] 1.4233779438288650e+00
pressure[sink_7] 1.8254089035708498e+00
pressure[sink_8] 2.7923346412806140e+01
pressure[sink_9] 1.8420647412952626e+01
pressure[sink_10] 7.6938807490748189e+01
pressure[sink_11] 7.6787106183144644e+01
pressure[sink_12] 1.01325
pressure[sink_13] 7.5283289375186968e+01
pressure[sink_14] 7.5315443641319220e+01
pressure[sink_15] 7.5554018651672351e+01
pressure[sink_16] 7.5765456348326964e+01
pressure[sink_17] 2.5772926603571875e+01
pressure[sink_18] 1.7828904919152919e+01
pressure[sink_19] 7.9195309665777984e+01
pressure[sink_20] 3.3034475494813229e+01
pressure[sink_21] 1.01325
pressure[sink_22] 1.01325
pressure[sink_23] 8.0290349119774334e+01
pressure[sink_24] 1.01325
pressure[sink_25] 7.5274395663466976e+01
pressure[sink_26] 2.0378325580837231e+01
pressure[sink_27] 8.0373276358591440e+01
pressure[sink_28] 77.4266132693418
pressure[sink_29] 7.7721895542958976e+01
interdiction[source_1,sink_3] 0
interdiction[innode_1,sink_16] 0
interdiction[innode_6,sink_13] 0
interdiction[sink_13,sink_14] 0
interdiction[sink_14,sink_10] 0
interdiction[sink_25,sink_26] 1
interdiction[sink_26,sink_9] 0
interdiction[sink_9,sink_18] 0
interdiction[sink_26,sink_4] 0
interdiction[sink_4,sink_20] 0
interdiction[sink_18,sink_6] 1
interdiction[sink_25,innode_8] 0
interdiction[sink_6,sink_7] 0
interdiction[sink_6,sink_22] 0
interdiction[sink_7,sink_24] 0
interdiction[sink_22,sink_1] 0
interdiction[sink_24,sink_21] 0
interdiction[sink_21,sink_12] 0
interdiction[sink_7,sink_5] 0
interdiction[sink_5,sink_17] 0
interdiction[sink_17,sink_4] 0
interdiction[sink_17,sink_8] 0
interdiction[sink_3,sink_23] 0
interdiction[sink_8,sink_20] 0
interdiction[sink_25,sink_20] 0
interdiction[sink_25,sink_15] 0
interdiction[sink_15,sink_29] 0
interdiction[sink_29,sink_28] 0
interdiction[sink_29,sink_2] 0
interdiction[sink_2,sink_15] 1
interdiction[sink_29,innode_7] 0
interdiction[innode_4,sink_19] 0
interdiction[sink_19,innode_3] 0
interdiction[innode_4,innode_5] 0
interdiction[sink_27,innode_5] 0
interdiction[sink_27,sink_19] 0
interdiction[sink_10,sink_11] 0
interdiction[sink_10,innode_2] 0
interdiction[sink_10,innode_3] 0
interdiction[innode_6,sink_25] 0
interdiction[sink_11,innode_1] 0
interdiction[sink_19,innode_2] 0
interdiction[source_3,innode_4] 0
interdiction[source_2,innode_7] 0
interdiction[sink_3,innode_8] 0
WCcheckFlow[source_1,sink_3] 39
WCcheckFlow[innode_1,sink_16] 1
WCcheckFlow[innode_6,sink_13] 13
WCcheckFlow[sink_13,sink_14] 12
WCcheckFlow[sink_14,sink_10] 11
WCcheckFlow[sink_25,sink_26] 0
WCcheckFlow[sink_26,sink_9] 2
WCcheckFlow[sink_9,sink_18] 1
WCcheckFlow[sink_26,sink_4] -3
WCcheckFlow[sink_4,sink_20] -14
WCcheckFlow[sink_18,sink_6] 0
WCcheckFlow[sink_25,innode_8] -36
WCcheckFlow[sink_6,sink_7] -3
WCcheckFlow[sink_6,sink_22] 2
WCcheckFlow[sink_7,sink_24] 3
WCcheckFlow[sink_22,sink_1] 1
WCcheckFlow[sink_24,sink_21] 2
WCcheckFlow[sink_21,sink_12] 1
WCcheckFlow[sink_7,sink_5] -7
WCcheckFlow[sink_5,sink_17] -8
WCcheckFlow[sink_17,sink_4] -10
WCcheckFlow[sink_17,sink_8] 1
WCcheckFlow[sink_3,sink_23] 1
WCcheckFlow[sink_8,sink_20] 0
WCcheckFlow[sink_25,sink_20] 15
WCcheckFlow[sink_25,sink_15] 6
WCcheckFlow[sink_15,sink_29] 5
WCcheckFlow[sink_29,sink_28] 1
WCcheckFlow[sink_29,sink_2] 1
WCcheckFlow[sink_2,sink_15] 0
WCcheckFlow[sink_29,innode_7] 2
WCcheckFlow[innode_4,sink_19] -4
WCcheckFlow[sink_19,innode_3] -5
WCcheckFlow[innode_4,innode_5] 2
WCcheckFlow[sink_27,innode_5] -1
WCcheckFlow[sink_27,sink_19] 0
WCcheckFlow[sink_10,sink_11] 3
WCcheckFlow[sink_10,innode_2] 1
WCcheckFlow[sink_10,innode_3] 6
WCcheckFlow[innode_6,sink_25] -14
WCcheckFlow[sink_11,innode_1] 2
WCcheckFlow[sink_19,innode_2] 0
WCcheckFlow[source_3,innode_4] -1
WCcheckFlow[source_2,innode_7] -1
WCcheckFlow[sink_3,innode_8] 37
